100
128
38
55
12
39
12
11
8
14
17
18
19
10
30
62
57
35
27
8
6
8
63
4
40
26
4
30
44
9
51
33
45
44
8
29
20
9
12
21
13
46
17
8
17
64
60
50
18
16
18
59
2
23
1
22
39
35
22
25
14
37
36
12
44
16
19
16
13
10
12
11
13
1
16
1
51
12
32
32
43
25
28
14
2
18
13
13
16
22
21
20
19
16
50
58
1
48
22
38
64
63